NAME : gaussian_missing_edges_with_de_nei2_nei3_random114.8107.tour
COMMENT : Length = 8107
COMMENT : Found by LKH [Keld Helsgaun] Fri Jul 12 17:14:28 2024
TYPE : TOUR
DIMENSION : 114
TOUR_SECTION
1
83
3
11
61
112
105
90
111
36
77
50
74
27
84
99
42
103
114
98
62
58
66
12
64
55
5
52
19
15
4
31
13
23
21
72
54
24
95
113
96
86
47
53
75
57
101
68
38
22
67
9
78
70
88
73
33
89
69
51
20
92
29
60
65
10
82
41
94
18
80
93
28
25
40
85
87
46
17
37
71
45
102
16
56
63
106
59
81
76
34
43
97
108
6
100
32
44
14
79
104
8
2
7
109
110
49
91
39
35
30
26
48
107
-1
EOF
